NAME: sim-grid-A-40
TYPE: TSP
COMMENT: Semi-regular Grid
DIMENSION: 40
EDGE_WEIGHT_TYPE: EUC_2D
NODE_COORD_SECTION
1 50 100
2 550 100
3 650 100
4 800 100
5 1150 100
6 1550 100
7 50 150
8 300 150
9 650 150
10 800 150
11 1300 150
12 1550 150
13 200 300
14 350 300
15 950 300
16 1450 300
17 200 350
18 350 350
19 450 350
20 700 350
21 1100 350
22 1200 350
23 1350 350
24 100 500
25 250 500
26 300 500
27 700 500
28 1250 500
29 1450 500
30 50 550
31 100 550
32 250 550
33 650 550
34 1100 550
35 1500 550
36 300 700
37 300 750
38 500 750
39 900 750
40 1500 750
EOF
